(set-logic ALL)
(set-option :produce-models true)
(declare-sort BoundSet 0)
(declare-sort UnboundSet 0)
(declare-fun IsCausedBy (BoundSet BoundSet) Bool)
(declare-fun IsTornDown (BoundSet) Bool)
(declare-fun IsReplacedWith (BoundSet BoundSet) Bool)
(declare-fun PreventsCancer (BoundSet BoundSet) Bool)
(assert (not (=> (exists ((b BoundSet)) (exists ((a BoundSet)) (IsCausedBy a b))) (exists ((d BoundSet)) (exists ((c BoundSet)) (exists ((a BoundSet)) (and (IsTornDown a) (and (IsReplacedWith a c) (PreventsCancer c d)))))))))
(check-sat)
(get-model)